
GUB cover cuts applied:  4
Clique cuts applied:  44
Cover cuts applied:  93
Implied bound cuts applied:  1
Flow cuts applied:  1
Mixed integer rounding cuts applied:  33
Zero-half cuts applied:  215
Lift and project cuts applied:  2
Gomory fractional cuts applied:  2

Root node processing (before b&c):
  Real time             =    2.81 sec. (2059.59 ticks)
Parallel b&c, 4 threads:
  Real time             =    8.88 sec. (6001.39 ticks)
  Sync time (average)   =    0.81 sec.
  Wait time (average)   =    0.00 sec.
                          ------------
Total (root+branch&cut) =   11.69 sec. (8060.98 ticks)
Version identifier: 12.10.0.0 | 2019-11-26 | 843d4de
CPXPARAM_MIP_Interval                            10
CPXPARAM_MIP_Tolerances_AbsMIPGap                0.98999999999999999
Tried aggregator 2 times.
MIP Presolve eliminated 60308 rows and 60366 columns.
MIP Presolve modified 1 coefficients.
Aggregator did 108 substitutions.
Reduced MIP has 6697 rows, 5166 columns, and 20708 nonzeros.
Reduced MIP has 5166 binaries, 0 generals, 0 SOSs, and 0 indicators.
Presolve time = 0.12 sec. (79.54 ticks)
Found incumbent of value 4.000000 after 0.23 sec. (184.22 ticks)
Probing fixed 42 vars, tightened 0 bounds.
Probing changed sense of 88 constraints.
Probing time = 0.01 sec. (8.79 ticks)
Tried aggregator 2 times.
Detecting symmetries...
MIP Presolve eliminated 341 rows and 249 columns.
Aggregator did 43 substitutions.
Reduced MIP has 6313 rows, 4874 columns, and 19504 nonzeros.
Reduced MIP has 4874 binaries, 0 generals, 0 SOSs, and 0 indicators.
Presolve time = 0.03 sec. (32.19 ticks)
Probing time = 0.01 sec. (7.29 ticks)
Clique table members: 12514.
MIP emphasis: balance optimality and feasibility.
MIP search method: dynamic search.
Parallel mode: deterministic, using up to 4 threads.
Root relaxation solution time = 0.08 sec. (67.99 ticks)

        Nodes                                         Cuts/
   Node  Left     Objective  IInf  Best Integer    Best Bound    ItCnt     Gap

*     0+    0                            4.0000       40.0000           900.00%
*     0+    0                           10.0000       40.0000           300.00%
      0     0       25.4500   973       10.0000       25.4500     1590  154.50%
*     0+    0                           23.0000       25.4500            10.65%
      0     0       25.2500   973       23.0000     Cuts: 270     2152    9.78%
      0     0       25.2500   973       23.0000     Cuts: 132     2409    9.78%
      0     0       25.2500   973       23.0000      Cuts: 28     2837    9.78%
      0     0       25.2323   973       23.0000     Cuts: 222     3929    9.71%
      0     0       25.2233   973       23.0000     Cuts: 377     4236    9.67%
Detecting symmetries...
      0     0       25.2225   973       23.0000     Cuts: 219     4403    9.66%
      0     0       25.2225   973       23.0000     Cuts: 195     4615    9.66%
Detecting symmetries...
      0     2       25.2225   880       23.0000       25.0500     4615    8.91%
Elapsed time = 3.40 sec. (2597.68 ticks, tree = 0.02 MB, solutions = 3)
     10     4       25.0261   959       23.0000       25.0500     6248    8.91%
     20    21       24.3333   642       23.0000       25.0500    20631    8.91%
     30    24       24.4934   833       23.0000       25.0500    23994    8.91%
     40    34        cutoff             23.0000       25.0500    31928    8.91%
     50    35       24.8999   791       23.0000       25.0500    33120    8.91%
     60    48       24.0410   865       23.0000       25.0500    40341    8.91%
     70    52        cutoff             23.0000       25.0500    43353    8.91%
     80    51       24.1622  1198       23.0000       25.0500    52801    8.91%
     90    53       24.0093   565       23.0000       24.9405    58723    8.44%
    100    57       24.3500   904       23.0000       24.8750    62742    8.15%
Elapsed time = 5.35 sec. (4287.87 ticks, tree = 0.08 MB, solutions = 3)
    110    60       24.2639   967       23.0000       24.8750    66386    8.15%
    120    59       24.0000   649       23.0000       24.8750    68829    8.15%
    130    68       24.3333   722       23.0000       24.8750    76821    8.15%
    140    67       24.2037   771       23.0000       24.8750    80002    8.15%
    150    72        cutoff             23.0000       24.8750    89204    8.15%
    160    72        cutoff             23.0000       24.8750    95579    8.15%
    170    73       24.8750  1214       23.0000       24.8750    93277    8.15%
    180    78        cutoff             23.0000       24.8750   105607    8.15%
    190    81        cutoff             23.0000       24.8750   110957    8.15%
    200    85       24.0816   907       23.0000       24.8750   116611    8.15%
Elapsed time = 6.86 sec. (5597.87 ticks, tree = 0.21 MB, solutions = 3)
    210    79        cutoff             23.0000       24.8750   122081    8.15%
    220    81        cutoff             23.0000       24.8750   127697    8.15%
    230    84       24.2500  1245       23.0000       24.6841   134784    7.32%
    240    86       24.0833  1166       23.0000       24.6841   136946    7.32%
    250    74       24.3659   926       23.0000       24.6600   147282    7.22%
    260    72        cutoff             23.0000       24.6538   148108    7.19%
    270    73       24.0000   610       23.0000       24.6406   163250    7.13%
    280    73        cutoff             23.0000       24.6406   167628    7.13%
    290    74       24.0000   376       23.0000       24.5631   176235    6.80%
    300    76       24.0000   947       23.0000       24.5631   170207    6.80%
Elapsed time = 9.51 sec. (7476.37 ticks, tree = 0.10 MB, solutions = 3)
    310    71        cutoff             23.0000       24.5631   180393    6.80%
    320    70        cutoff             23.0000       24.5000   185493    6.52%
    330    67        cutoff             23.0000       24.5000   187010    6.52%
    340    59        cutoff             23.0000       24.4621   201258    6.36%
    350    55        cutoff             23.0000       24.4621   204152    6.36%
    360    46        cutoff             23.0000       24.4267   207444    6.20%
    370    66        cutoff             23.0000       24.4267   198968    6.20%
    380    65        cutoff             23.0000       24.4267   199989    6.20%
    390    43        cutoff             23.0000       24.4267   213159    6.20%
    400    20       24.0294  1015       23.0000       24.2500   225043    5.43%
Elapsed time = 11.89 sec. (8712.30 ticks, tree = 0.03 MB, solutions = 3)
    410    38       24.0000  1110       23.0000       24.2500   217215    5.43%
the number of Nodes = 420
